webassembly/ejemplos_dzn/folder11_json_1.dzn
TERM = { '.', 's(2)', 's(5)', 's(4)', 'local_0', 'local_1', 's(8)', 's(6)', 's(1)', 's(0)', 's(7)', 's(3)'};
null = '.';
s = 11;
n = 10;
ndeps = 3;
max_registers_sz = 5;
NR = 2;
registers = [|'local_0', 'local_1', |'local_1', 's(5)'|];
dependencies = [|'i32.load8_u_4', 'call[function_index(0)]_7', |'call[function_index(0)]_7', 'i32.load_9', |'i32.load_5', 'call[function_index(0)]_7'|];
GET_ENUM = { GET1, GET2, GET3, GET4, GET5, GET6, GET7};
SET_ENUM = { SET1, SET2, SET3, SET4, SET5, SET6, SET7};
TEE_ENUM = { TEE1, TEE2, TEE3, TEE4, TEE5, TEE6, TEE7};
N = 7;
OP = { 'i32.add_0', 'i32.const_0', 'call[function_index(0)]_7', 'i32.add_1', 'i32.load8_u_4', 'i32.load_5', 'i32.load_9' };
in_ops = [2, 0, 0, 2, 1, 1, 1 ];
out_ops = [1, 1, 3, 1, 1, 1, 1 ];
in1 = ['s(6)', '.', '.', 'local_1', 's(0)', 's(1)', 's(4)' ];
in2 = ['s(3)', '.', '.', 'local_1', '.', '.', '.' ];
in3 = ['.', '.', '.', '.', '.', '.', '.' ];
out1 = ['s(7)', 's(8)', 's(5)', 's(0)', 's(1)', 's(2)', 's(6)' ];
out2 = ['.', '.', 's(4)', '.', '.', '.', '.' ];
out3 = ['.', '.', 's(3)', '.', '.', '.', '.' ];
comm = [true, false, false, true, false, false, false ];
gas = [1, 1, 1, 1, 1, 1, 1 ];
sz = [1, 1, 1, 1, 1, 1, 1 ];
stor = [false, false, true, false, false, false, false ];
lb = [ 1, 1, 1, 1, 1, 1, 1 ];
ub = [ 11, 11, 11, 11, 11, 11, 11 ];
startstack = [ null, null, null, null, null, null, null, null, null, null ];
endstack = [ 's(7)', 's(8)', 's(2)', null, null, null, null, null, null, null ];
